CIF file                                
   1.00000000000000     
     9.6936998367000005    0.0000000000000000    0.0000000000000000
     0.0000000000000000    9.6936998367000005    0.0000000000000000
     0.0000000000000000    0.0000000000000000   40.2933006287000026
   Zn   N 
   120    72
Selective dynamics
Direct
  0.4341000771059978  0.1517173091771683  0.2806231937801830   T   T   T
  0.0797778069613784  0.9028298138241533  0.2699466675415756   T   T   T
  0.5659213430751753  0.6517170042349576  0.2806218937642745   T   T   T
  0.9202360864782935  0.4028319991289409  0.2699468399239486   T   T   T
  0.6855955786838064  0.8887343568535946  0.2751338359127090   T   T   T
  0.9024936465583708  0.0764254077265379  0.2683413077535269   T   T   T
  0.3144194790183000  0.3887388595238060  0.2751357938352993   T   T   T
  0.0975169678924604  0.5764257817032283  0.2683417411484733   T   T   T
  0.8393157754062271  0.6622783459885049  0.2686835486972710   T   T   T
  0.5799181679989636  0.4108619101688780  0.2628743412401197   T   T   T
  0.4200960265687103  0.9108604212856692  0.2628763490765581   T   T   T
  0.1606920196352539  0.1622737006880526  0.2686848176262914   T   T   T
  0.3591144657602112  0.6579044415019749  0.2177878823300490   T   T   T
  0.1220973989402407  0.3482674130533984  0.2156341516556429   T   T   T
  0.6408871222884789  0.1579092195687833  0.2177845408204792   T   T   T
  0.8779093088372573  0.8482605035172223  0.2156336904508069   T   T   T
  0.3587133340234328  0.1123296726261042  0.2125432584764509   T   T   T
  0.1592040016867737  0.9006123227692057  0.2073784469695344   T   T   T
  0.8408082616726922  0.4006117330231246  0.2073754370946457   T   T   T
  0.6412971814701581  0.6123295862971874  0.2125438905321959   T   T   T
  0.9018209861768397  0.1279007102387636  0.2038808937016377   T   T   T
  0.6059060008071944  0.8830093209569179  0.2057500433384596   T   T   T
  0.0981907419657421  0.6279025364922955  0.2038793080597699   T   T   T
  0.3941054106858704  0.3830143174762947  0.2057487748297130   T   T   T
  0.6018592353647426  0.3749910205907858  0.1564646213795431   T   T   T
  0.8938261063157343  0.6251378228361475  0.1561811276048828   T   T   T
  0.3981477140103530  0.8749876227680304  0.1564649694537964   T   T   T
  0.1061781140957945  0.1251350935744140  0.1561793059461774   T   T   T
  0.1508168211486217  0.3967514060499550  0.1504386966947449   T   T   T
  0.3509703443242572  0.6030972342253635  0.1508231688005214   T   T   T
  0.8491969522778328  0.8967476062211688  0.1504373197590589   T   T   T
  0.6490361828590162  0.1030929055453347  0.1508219116414349   T   T   T
  0.1247061119623188  0.8498273037157190  0.1438090068442555   T   T   T
  0.3761647382839245  0.1499935053929042  0.1462491745724117   T   T   T
  0.8752959545529587  0.3498238782265400  0.1438084657835494   T   T   T
  0.6238433754816379  0.6499915727916131  0.1462487974186712   T   T   T
  0.6250000000000000  0.8500999809999996  0.0952999960000014   F   F   F
  0.8750000000000000  0.1499000040000027  0.0952999960000014   F   F   F
  0.3750000000000000  0.3501000110000021  0.0952999960000014   F   F   F
  0.1250000000000000  0.6499000190000004  0.0952999960000014   F   F   F
  0.8500999809999996  0.6036999820000020  0.0902000000000029   F   F   F
  0.6499000190000004  0.3962999880000027  0.0902000000000029   F   F   F
  0.1499000040000027  0.1036999969999997  0.0902000000000029   F   F   F
  0.3501000110000021  0.8963000179999980  0.0902000000000029   F   F   F
  0.1036999969999997  0.3750000000000000  0.0842000020000029   F   F   F
  0.3962999880000027  0.6250000000000000  0.0842000020000029   F   F   F
  0.8963000179999980  0.8750000000000000  0.0842000020000029   F   F   F
  0.6036999820000020  0.1250000000000000  0.0842000020000029   F   F   F
  0.3962999880000027  0.1250000000000000  0.0360999999999976   F   F   F
  0.1036999969999997  0.8750000000000000  0.0360999999999976   F   F   F
  0.6036999820000020  0.6250000000000000  0.0360999999999976   F   F   F
  0.8963000179999980  0.3750000000000000  0.0360999999999976   F   F   F
  0.6499000190000004  0.8963000179999980  0.0300999990000008   F   F   F
  0.8500999809999996  0.1036999969999997  0.0300999990000008   F   F   F
  0.3501000110000021  0.3962999880000027  0.0300999990000008   F   F   F
  0.1499000040000027  0.6036999820000020  0.0300999990000008   F   F   F
  0.8750000000000000  0.6499000190000004  0.0249000009999989   F   F   F
  0.6250000000000000  0.3501000110000021  0.0249000009999989   F   F   F
  0.3750000000000000  0.8500999809999996  0.0249000009999989   F   F   F
  0.1250000000000000  0.1499000040000027  0.0249000009999989   F   F   F
  0.3750000000000000  0.6499000190000004  0.9750999809999996   F   F   F
  0.1250000000000000  0.3501000110000021  0.9750999809999996   F   F   F
  0.6250000000000000  0.1499000040000027  0.9750999809999996   F   F   F
  0.8750000000000000  0.8500999809999996  0.9750999809999996   F   F   F
  0.3501000110000021  0.1036999969999997  0.9699000119999965   F   F   F
  0.1499000040000027  0.8963000179999980  0.9699000119999965   F   F   F
  0.8500999809999996  0.3962999880000027  0.9699000119999965   F   F   F
  0.6499000190000004  0.6036999820000020  0.9699000119999965   F   F   F
  0.8963000179999980  0.1250000000000000  0.9639000299999978   F   F   F
  0.6036999820000020  0.8750000000000000  0.9639000299999978   F   F   F
  0.1036999969999997  0.6250000000000000  0.9639000299999978   F   F   F
  0.3962999880000027  0.3750000000000000  0.9639000299999978   F   F   F
  0.6036999820000020  0.3750000000000000  0.9157999749999988   F   F   F
  0.8963000179999980  0.6250000000000000  0.9157999749999988   F   F   F
  0.3962999880000027  0.8750000000000000  0.9157999749999988   F   F   F
  0.1036999969999997  0.1250000000000000  0.9157999749999988   F   F   F
  0.1499000040000027  0.3962999880000027  0.9097999930000000   F   F   F
  0.3501000110000021  0.6036999820000020  0.9097999930000000   F   F   F
  0.8500999809999996  0.8963000179999980  0.9097999930000000   F   F   F
  0.6499000190000004  0.1036999969999997  0.9097999930000000   F   F   F
  0.1250000000000000  0.8500999809999996  0.9046999810000003   F   F   F
  0.3750000000000000  0.1499000040000027  0.9046999810000003   F   F   F
  0.8750000000000000  0.3501000110000021  0.9046999810000003   F   F   F
  0.6250000000000000  0.6499000190000004  0.9046999810000003   F   F   F
  0.6244756670312239  0.8480989151217477  0.8551455711831034   T   T   T
  0.8746401608814793  0.1480560423975607  0.8548265266974447   T   T   T
  0.3746621075087712  0.3514838865201400  0.8546922174511875   T   T   T
  0.1245228400014668  0.6514298133194785  0.8552475603164023   T   T   T
  0.8485411049266849  0.6042577898918396  0.8493170688886205   T   T   T
  0.6484306120486325  0.3977394702241836  0.8499407032988457   T   T   T
  0.1484798126036107  0.1018536484938512  0.8499364461342261   T   T   T
  0.3485118388130593  0.8952295390069220  0.8493174983950016   T   T   T
  0.1029843008205059  0.3760775640476356  0.8440440143562364   T   T   T
  0.3981214944461244  0.6252167516294718  0.8427934549911035   T   T   T
  0.8978284646034121  0.8742421139360206  0.8427910964319839   T   T   T
  0.6029479998140824  0.1233601759193013  0.8440659746497993   T   T   T
  0.3954702763621522  0.1200725917060086  0.7956925429594882   T   T   T
  0.1027332219241619  0.8781931564743085  0.7913286720822438   T   T   T
  0.6032756518812971  0.6206489887766935  0.7912055017407704   T   T   T
  0.8955557215687993  0.3788149253608773  0.7956337549195415   T   T   T
  0.6468722279437806  0.8930967169641691  0.7909919068435289   T   T   T
  0.8512790861404050  0.1075760417962363  0.7883676241778966   T   T   T
  0.3517184261700391  0.3913322031642284  0.7881634777463563   T   T   T
  0.1477597053568996  0.6056045931093671  0.7911679219127632   T   T   T
  0.8632695851684538  0.6531070888176969  0.7827878221381923   T   T   T
  0.6275079233434325  0.3393186657297116  0.7868707510312647   T   T   T
  0.3625693391396109  0.8454473055214703  0.7826921509661887   T   T   T
  0.1273375327746011  0.1595168823109081  0.7868153406730805   T   T   T
  0.4064040600987144  0.6012825489018108  0.7392467213120513   T   T   T
  0.1393164938948925  0.3433263634240049  0.7318294681386117   T   T   T
  0.6379907520871226  0.1553735778525775  0.7318225035974621   T   T   T
  0.9044868517684577  0.8968458715160117  0.7394105943860001   T   T   T
  0.3777884342995244  0.0904870003214004  0.7287531216770049   T   T   T
  0.1196068253442669  0.0385752801257411  0.7249382769740993   T   T   T
  0.8796727297953224  0.4102298525046563  0.7287163231441186   T   T   T
  0.6212498750320544  0.4574491778642530  0.7248426746794883   T   T   T
  0.8918281605444252  0.1542131568723709  0.7191161911313149   T   T   T
  0.5551476426376872  0.9046348930962641  0.7287980184766540   T   T   T
  0.0576609440619305  0.5948035953135059  0.7289808565260149   T   T   T
  0.3926422701844753  0.3451408414274675  0.7186317353390417   T   T   T
  0.2479067355207646 -0.0076231125109620  0.2447356636596098   T   T   T
  0.7521024376107426  0.4923784287709371  0.2447371017652467   T   T   T
  0.0159009449080747  0.7424769051788617  0.2430033102962847   T   T   T
  0.4923457295085271  0.2560363838946014  0.2386337650632680   T   T   T
  0.9841069083525744  0.2424778888592341  0.2430018349528877   T   T   T
  0.5076631279683016  0.7560406247245786  0.2386348903092358   T   T   T
  0.7576586234054651  0.0036948915501255  0.2364593029942196   T   T   T
  0.2423487459215200  0.5036964610232242  0.2364589287405678   T   T   T
 -0.0006615227267245  0.4781919931319882  0.1802560237847905   T   T   T
  0.5012763969115285  0.5225810972438201  0.1805944628014741   T   T   T
  0.0006704492184433  0.9781904659455043  0.1802568915240687   T   T   T
  0.4987355856034769  0.0225757592771375  0.1805939631957305   T   T   T
  0.7497224385520139  0.5007320180193053  0.1254855029043278   T   T   T
  0.2502823072580808  0.0007363675919675  0.1254858211861223   T   T   T
  0.0227623019180250  0.2493871433765906  0.1201205902874684   T   T   T
  0.4791523149152404  0.7501265752597187  0.1204601647519335   T   T   T
  0.9772420861629552  0.7493969041977491  0.1201218092529566   T   T   T
  0.5208518105438724  0.2501308270882932  0.1204602349206763   T   T   T
  0.2503531342393812  0.5004175287379303  0.1153035361397660   T   T   T
  0.7496532179219169  0.0004143655181579  0.1153026555642275   T   T   T
  0.0000000000000000  0.0211999989999967  0.0600999999999985   F   F   F
  0.5000000000000000  0.9787999990000031  0.0600999999999985   F   F   F
  0.0000000000000000  0.5212000009999969  0.0600999999999985   F   F   F
  0.5000000000000000  0.4787999990000031  0.0600999999999985   F   F   F
  0.2500000000000000  0.0000000000000000  0.0050999999999988   F   F   F
  0.7500000000000000  0.5000000000000000  0.0050999999999988   F   F   F
  0.0211999989999967  0.7500000000000000  0.0000000000000000   F   F   F
  0.4787999990000031  0.2500000000000000  0.0000000000000000   F   F   F
  0.9787999990000031  0.2500000000000000  0.0000000000000000   F   F   F
  0.5212000009999969  0.7500000000000000  0.0000000000000000   F   F   F
  0.7500000000000000  0.0000000000000000  0.9948999880000002   F   F   F
  0.2500000000000000  0.5000000000000000  0.9948999880000002   F   F   F
  0.0000000000000000  0.4787999990000031  0.9398999810000035   F   F   F
  0.5000000000000000  0.5212000009999969  0.9398999810000035   F   F   F
  0.0000000000000000  0.9787999990000031  0.9398999810000035   F   F   F
  0.5000000000000000  0.0211999989999967  0.9398999810000035   F   F   F
  0.7501444813121227  0.5002229464631205  0.8848405110937105   T   T   T
  0.2502559485827850 -0.0004455096708851  0.8848365337877487   T   T   T
  0.0208762973000571  0.2487431912717986  0.8796570795065377   T   T   T
  0.4775852280284829  0.7483747384887836  0.8796716488546529   T   T   T
  0.9776320516030738  0.7513618800006416  0.8796757739312666   T   T   T
  0.5208932590970443  0.2510566736096370  0.8796412862763223   T   T   T
  0.2494243500817344  0.5010195367217618  0.8745666347592049   T   T   T
  0.7492803670864706 -0.0014073967904973  0.8745835757110437   T   T   T
  0.0007319481895109  0.0201466418221257  0.8185179626371368   T   T   T
  0.4986313725386788  0.9768986058108725  0.8200698353220829   T   T   T
 -0.0014395475868800  0.5223870643248626  0.8200252466754631   T   T   T
  0.5007290743457536  0.4792601266286834  0.8184818055819062   T   T   T
  0.2458635224893526  0.0068537488488718  0.7640452209201178   T   T   T
  0.7462043744971836  0.4919449228672613  0.7640880788258864   T   T   T
  0.0088972220869487  0.7482655397334885  0.7582558788022693   T   T   T
  0.4843420917953458  0.2439924352025298  0.7609101035713066   T   T   T
 -0.0153220432768619  0.2553086941228989  0.7607949529078418   T   T   T
  0.5089304949853036  0.7510771993367136  0.7582440421016045   T   T   T
  0.7417180915110229 -0.0059611576342936  0.7548936836153480   T   T   T
  0.2421886581004463  0.5059200775810372  0.7548274943280305   T   T   T
  0.2451811029220785  0.7484059170152600  0.1794754867082344   T   T   T
  0.2494337997788144  0.2515983300193017  0.1813915511906131   T   T   T
  0.7505788822123221  0.7515929605480858  0.1813930251260311   T   T   T
  0.7548310898781212  0.2484026980246004  0.1794749881460074   T   T   T
  0.7500000000000000  0.7500000000000000  0.0600999999999985   F   F   F
  0.7500000000000000  0.2500000000000000  0.0600999999999985   F   F   F
  0.2500000000000000  0.2500000000000000  0.0600999999999985   F   F   F
  0.2500000000000000  0.7500000000000000  0.0600999999999985   F   F   F
  0.2500000000000000  0.7500000000000000  0.9398999810000035   F   F   F
  0.2500000000000000  0.2500000000000000  0.9398999810000035   F   F   F
  0.7500000000000000  0.7500000000000000  0.9398999810000035   F   F   F
  0.7500000000000000  0.2500000000000000  0.9398999810000035   F   F   F
  0.7475405383648017  0.7480927616968900  0.8192430729921076   T   T   T
  0.7527405230182418  0.2473225826716209  0.8204160543844392   T   T   T
  0.2525802228721499  0.2520201910977468  0.8203385196347237   T   T   T
  0.2474274982762700  0.7513364761493855  0.8192918298724993   T   T   T
 
  0.00000000E+00  0.00000000E+00  0.00000000E+00
  0.00000000E+00  0.00000000E+00  0.00000000E+00
  0.00000000E+00  0.00000000E+00  0.00000000E+00
  0.00000000E+00  0.00000000E+00  0.00000000E+00
  0.00000000E+00  0.00000000E+00  0.00000000E+00
  0.00000000E+00  0.00000000E+00  0.00000000E+00
  0.00000000E+00  0.00000000E+00  0.00000000E+00
  0.00000000E+00  0.00000000E+00  0.00000000E+00
  0.00000000E+00  0.00000000E+00  0.00000000E+00
  0.00000000E+00  0.00000000E+00  0.00000000E+00
  0.00000000E+00  0.00000000E+00  0.00000000E+00
  0.00000000E+00  0.00000000E+00  0.00000000E+00
  0.00000000E+00  0.00000000E+00  0.00000000E+00
  0.00000000E+00  0.00000000E+00  0.00000000E+00
  0.00000000E+00  0.00000000E+00  0.00000000E+00
  0.00000000E+00  0.00000000E+00  0.00000000E+00
  0.00000000E+00  0.00000000E+00  0.00000000E+00
  0.00000000E+00  0.00000000E+00  0.00000000E+00
  0.00000000E+00  0.00000000E+00  0.00000000E+00
  0.00000000E+00  0.00000000E+00  0.00000000E+00
  0.00000000E+00  0.00000000E+00  0.00000000E+00
  0.00000000E+00  0.00000000E+00  0.00000000E+00
  0.00000000E+00  0.00000000E+00  0.00000000E+00
  0.00000000E+00  0.00000000E+00  0.00000000E+00
  0.00000000E+00  0.00000000E+00  0.00000000E+00
  0.00000000E+00  0.00000000E+00  0.00000000E+00
  0.00000000E+00  0.00000000E+00  0.00000000E+00
  0.00000000E+00  0.00000000E+00  0.00000000E+00
  0.00000000E+00  0.00000000E+00  0.00000000E+00
  0.00000000E+00  0.00000000E+00  0.00000000E+00
  0.00000000E+00  0.00000000E+00  0.00000000E+00
  0.00000000E+00  0.00000000E+00  0.00000000E+00
  0.00000000E+00  0.00000000E+00  0.00000000E+00
  0.00000000E+00  0.00000000E+00  0.00000000E+00
  0.00000000E+00  0.00000000E+00  0.00000000E+00
  0.00000000E+00  0.00000000E+00  0.00000000E+00
  0.00000000E+00  0.00000000E+00  0.00000000E+00
  0.00000000E+00  0.00000000E+00  0.00000000E+00
  0.00000000E+00  0.00000000E+00  0.00000000E+00
  0.00000000E+00  0.00000000E+00  0.00000000E+00
  0.00000000E+00  0.00000000E+00  0.00000000E+00
  0.00000000E+00  0.00000000E+00  0.00000000E+00
  0.00000000E+00  0.00000000E+00  0.00000000E+00
  0.00000000E+00  0.00000000E+00  0.00000000E+00
  0.00000000E+00  0.00000000E+00  0.00000000E+00
  0.00000000E+00  0.00000000E+00  0.00000000E+00
  0.00000000E+00  0.00000000E+00  0.00000000E+00
  0.00000000E+00  0.00000000E+00  0.00000000E+00
  0.00000000E+00  0.00000000E+00  0.00000000E+00
  0.00000000E+00  0.00000000E+00  0.00000000E+00
  0.00000000E+00  0.00000000E+00  0.00000000E+00
  0.00000000E+00  0.00000000E+00  0.00000000E+00
  0.00000000E+00  0.00000000E+00  0.00000000E+00
  0.00000000E+00  0.00000000E+00  0.00000000E+00
  0.00000000E+00  0.00000000E+00  0.00000000E+00
  0.00000000E+00  0.00000000E+00  0.00000000E+00
  0.00000000E+00  0.00000000E+00  0.00000000E+00
  0.00000000E+00  0.00000000E+00  0.00000000E+00
  0.00000000E+00  0.00000000E+00  0.00000000E+00
  0.00000000E+00  0.00000000E+00  0.00000000E+00
  0.00000000E+00  0.00000000E+00  0.00000000E+00
  0.00000000E+00  0.00000000E+00  0.00000000E+00
  0.00000000E+00  0.00000000E+00  0.00000000E+00
  0.00000000E+00  0.00000000E+00  0.00000000E+00
  0.00000000E+00  0.00000000E+00  0.00000000E+00
  0.00000000E+00  0.00000000E+00  0.00000000E+00
  0.00000000E+00  0.00000000E+00  0.00000000E+00
  0.00000000E+00  0.00000000E+00  0.00000000E+00
  0.00000000E+00  0.00000000E+00  0.00000000E+00
  0.00000000E+00  0.00000000E+00  0.00000000E+00
  0.00000000E+00  0.00000000E+00  0.00000000E+00
  0.00000000E+00  0.00000000E+00  0.00000000E+00
  0.00000000E+00  0.00000000E+00  0.00000000E+00
  0.00000000E+00  0.00000000E+00  0.00000000E+00
  0.00000000E+00  0.00000000E+00  0.00000000E+00
  0.00000000E+00  0.00000000E+00  0.00000000E+00
  0.00000000E+00  0.00000000E+00  0.00000000E+00
  0.00000000E+00  0.00000000E+00  0.00000000E+00
  0.00000000E+00  0.00000000E+00  0.00000000E+00
  0.00000000E+00  0.00000000E+00  0.00000000E+00
  0.00000000E+00  0.00000000E+00  0.00000000E+00
  0.00000000E+00  0.00000000E+00  0.00000000E+00
  0.00000000E+00  0.00000000E+00  0.00000000E+00
  0.00000000E+00  0.00000000E+00  0.00000000E+00
  0.00000000E+00  0.00000000E+00  0.00000000E+00
  0.00000000E+00  0.00000000E+00  0.00000000E+00
  0.00000000E+00  0.00000000E+00  0.00000000E+00
  0.00000000E+00  0.00000000E+00  0.00000000E+00
  0.00000000E+00  0.00000000E+00  0.00000000E+00
  0.00000000E+00  0.00000000E+00  0.00000000E+00
  0.00000000E+00  0.00000000E+00  0.00000000E+00
  0.00000000E+00  0.00000000E+00  0.00000000E+00
  0.00000000E+00  0.00000000E+00  0.00000000E+00
  0.00000000E+00  0.00000000E+00  0.00000000E+00
  0.00000000E+00  0.00000000E+00  0.00000000E+00
  0.00000000E+00  0.00000000E+00  0.00000000E+00
  0.00000000E+00  0.00000000E+00  0.00000000E+00
  0.00000000E+00  0.00000000E+00  0.00000000E+00
  0.00000000E+00  0.00000000E+00  0.00000000E+00
  0.00000000E+00  0.00000000E+00  0.00000000E+00
  0.00000000E+00  0.00000000E+00  0.00000000E+00
  0.00000000E+00  0.00000000E+00  0.00000000E+00
  0.00000000E+00  0.00000000E+00  0.00000000E+00
  0.00000000E+00  0.00000000E+00  0.00000000E+00
  0.00000000E+00  0.00000000E+00  0.00000000E+00
  0.00000000E+00  0.00000000E+00  0.00000000E+00
  0.00000000E+00  0.00000000E+00  0.00000000E+00
  0.00000000E+00  0.00000000E+00  0.00000000E+00
  0.00000000E+00  0.00000000E+00  0.00000000E+00
  0.00000000E+00  0.00000000E+00  0.00000000E+00
  0.00000000E+00  0.00000000E+00  0.00000000E+00
  0.00000000E+00  0.00000000E+00  0.00000000E+00
  0.00000000E+00  0.00000000E+00  0.00000000E+00
  0.00000000E+00  0.00000000E+00  0.00000000E+00
  0.00000000E+00  0.00000000E+00  0.00000000E+00
  0.00000000E+00  0.00000000E+00  0.00000000E+00
  0.00000000E+00  0.00000000E+00  0.00000000E+00
  0.00000000E+00  0.00000000E+00  0.00000000E+00
  0.00000000E+00  0.00000000E+00  0.00000000E+00
  0.00000000E+00  0.00000000E+00  0.00000000E+00
  0.00000000E+00  0.00000000E+00  0.00000000E+00
  0.00000000E+00  0.00000000E+00  0.00000000E+00
  0.00000000E+00  0.00000000E+00  0.00000000E+00
  0.00000000E+00  0.00000000E+00  0.00000000E+00
  0.00000000E+00  0.00000000E+00  0.00000000E+00
  0.00000000E+00  0.00000000E+00  0.00000000E+00
  0.00000000E+00  0.00000000E+00  0.00000000E+00
  0.00000000E+00  0.00000000E+00  0.00000000E+00
  0.00000000E+00  0.00000000E+00  0.00000000E+00
  0.00000000E+00  0.00000000E+00  0.00000000E+00
  0.00000000E+00  0.00000000E+00  0.00000000E+00
  0.00000000E+00  0.00000000E+00  0.00000000E+00
  0.00000000E+00  0.00000000E+00  0.00000000E+00
  0.00000000E+00  0.00000000E+00  0.00000000E+00
  0.00000000E+00  0.00000000E+00  0.00000000E+00
  0.00000000E+00  0.00000000E+00  0.00000000E+00
  0.00000000E+00  0.00000000E+00  0.00000000E+00
  0.00000000E+00  0.00000000E+00  0.00000000E+00
  0.00000000E+00  0.00000000E+00  0.00000000E+00
  0.00000000E+00  0.00000000E+00  0.00000000E+00
  0.00000000E+00  0.00000000E+00  0.00000000E+00
  0.00000000E+00  0.00000000E+00  0.00000000E+00
  0.00000000E+00  0.00000000E+00  0.00000000E+00
  0.00000000E+00  0.00000000E+00  0.00000000E+00
  0.00000000E+00  0.00000000E+00  0.00000000E+00
  0.00000000E+00  0.00000000E+00  0.00000000E+00
  0.00000000E+00  0.00000000E+00  0.00000000E+00
  0.00000000E+00  0.00000000E+00  0.00000000E+00
  0.00000000E+00  0.00000000E+00  0.00000000E+00
  0.00000000E+00  0.00000000E+00  0.00000000E+00
  0.00000000E+00  0.00000000E+00  0.00000000E+00
  0.00000000E+00  0.00000000E+00  0.00000000E+00
  0.00000000E+00  0.00000000E+00  0.00000000E+00
  0.00000000E+00  0.00000000E+00  0.00000000E+00
  0.00000000E+00  0.00000000E+00  0.00000000E+00
  0.00000000E+00  0.00000000E+00  0.00000000E+00
  0.00000000E+00  0.00000000E+00  0.00000000E+00
  0.00000000E+00  0.00000000E+00  0.00000000E+00
  0.00000000E+00  0.00000000E+00  0.00000000E+00
  0.00000000E+00  0.00000000E+00  0.00000000E+00
  0.00000000E+00  0.00000000E+00  0.00000000E+00
  0.00000000E+00  0.00000000E+00  0.00000000E+00
  0.00000000E+00  0.00000000E+00  0.00000000E+00
  0.00000000E+00  0.00000000E+00  0.00000000E+00
  0.00000000E+00  0.00000000E+00  0.00000000E+00
  0.00000000E+00  0.00000000E+00  0.00000000E+00
  0.00000000E+00  0.00000000E+00  0.00000000E+00
  0.00000000E+00  0.00000000E+00  0.00000000E+00
  0.00000000E+00  0.00000000E+00  0.00000000E+00
  0.00000000E+00  0.00000000E+00  0.00000000E+00
  0.00000000E+00  0.00000000E+00  0.00000000E+00
  0.00000000E+00  0.00000000E+00  0.00000000E+00
  0.00000000E+00  0.00000000E+00  0.00000000E+00
  0.00000000E+00  0.00000000E+00  0.00000000E+00
  0.00000000E+00  0.00000000E+00  0.00000000E+00
  0.00000000E+00  0.00000000E+00  0.00000000E+00
  0.00000000E+00  0.00000000E+00  0.00000000E+00
  0.00000000E+00  0.00000000E+00  0.00000000E+00
  0.00000000E+00  0.00000000E+00  0.00000000E+00
  0.00000000E+00  0.00000000E+00  0.00000000E+00
  0.00000000E+00  0.00000000E+00  0.00000000E+00
  0.00000000E+00  0.00000000E+00  0.00000000E+00
  0.00000000E+00  0.00000000E+00  0.00000000E+00
  0.00000000E+00  0.00000000E+00  0.00000000E+00
  0.00000000E+00  0.00000000E+00  0.00000000E+00
  0.00000000E+00  0.00000000E+00  0.00000000E+00
  0.00000000E+00  0.00000000E+00  0.00000000E+00
  0.00000000E+00  0.00000000E+00  0.00000000E+00
  0.00000000E+00  0.00000000E+00  0.00000000E+00
  0.00000000E+00  0.00000000E+00  0.00000000E+00
  0.00000000E+00  0.00000000E+00  0.00000000E+00
  0.00000000E+00  0.00000000E+00  0.00000000E+00
