CIF file
   1.0000
     9.6936998367000005    0.0000000000000000    0.0000000000000000
     0.0000000000000000    9.6936998367000005    0.0000000000000000
     0.0000000000000000    0.0000000000000000   40.2933006287000026
   Zn   N
   120    72
Selective dynamics
Direct
  0.4341000771059978  0.1517173091771683  0.2806231937801830   T   T   T
  0.0797778069613784  0.9028298138241533  0.2699466675415756   T   T   T
  0.5659213430751753  0.6517170042349576  0.2806218937642745   T   T   T
  0.9202360864782935  0.4028319991289409  0.2699468399239486   T   T   T
  0.6855955786838064  0.8887343568535946  0.2751338359127090   T   T   T
  0.9024936465583708  0.0764254077265379  0.2683413077535269   T   T   T
  0.3144194790183000  0.3887388595238060  0.2751357938352993   T   T   T
