Ce7 O12                                 
   1.00000000000000     
     6.7927604128517149   -0.0101573361587653   -0.0123808454673077
    -1.1217898572980571    6.6994988349065840   -0.0123838705872592
    -1.1217934960187876   -1.3232378713904116    6.5675316041005756
   Ce   O 
     7    12
Direct
  0.0000000000000000  0.0000000000000000  0.0000000000000000
  0.1379397972272756  0.6007790571158509  0.3000351933184575
  0.8620601727727220  0.3992209428841491  0.6999647766815400
  0.3000351933184575  0.1379397972272756  0.6007790571158509
  0.6999647766815400  0.8620601727727220  0.3992209428841491
  0.6007790571158509  0.3000351933184575  0.1379397972272756
  0.3992209428841491  0.6999647766815400  0.8620601727727220
  0.4322629084433132  0.5825258002250919  0.1775451709311540
  0.5677370615566844  0.4174741997749081  0.8224548140688483
  0.1775451709311540  0.4322629084433132  0.5825258002250919
  0.8224548140688483  0.5677370615566844  0.4174741997749081
  0.5825258002250919  0.1775451709311540  0.4322629084433132
  0.4174741997749081  0.8224548140688483  0.5677370615566844
  0.9291209535168008  0.3210786478846472  0.0702203171118967
  0.0708790464831992  0.6789213221153503  0.9297796978881010
  0.0702203171118967  0.9291209535168008  0.3210786478846472
  0.9297796978881010  0.0708790464831992  0.6789213221153503
  0.3210786478846472  0.0702203171118967  0.9291209535168008
  0.6789213221153503  0.9297796978881010  0.0708790464831992
 
  0.00000000E+00  0.00000000E+00  0.00000000E+00
  0.00000000E+00  0.00000000E+00  0.00000000E+00
  0.00000000E+00  0.00000000E+00  0.00000000E+00
  0.00000000E+00  0.00000000E+00  0.00000000E+00
  0.00000000E+00  0.00000000E+00  0.00000000E+00
  0.00000000E+00  0.00000000E+00  0.00000000E+00
  0.00000000E+00  0.00000000E+00  0.00000000E+00
  0.00000000E+00  0.00000000E+00  0.00000000E+00
  0.00000000E+00  0.00000000E+00  0.00000000E+00
  0.00000000E+00  0.00000000E+00  0.00000000E+00
  0.00000000E+00  0.00000000E+00  0.00000000E+00
  0.00000000E+00  0.00000000E+00  0.00000000E+00
  0.00000000E+00  0.00000000E+00  0.00000000E+00
  0.00000000E+00  0.00000000E+00  0.00000000E+00
  0.00000000E+00  0.00000000E+00  0.00000000E+00
  0.00000000E+00  0.00000000E+00  0.00000000E+00
  0.00000000E+00  0.00000000E+00  0.00000000E+00
  0.00000000E+00  0.00000000E+00  0.00000000E+00
  0.00000000E+00  0.00000000E+00  0.00000000E+00
